ACTORES = {Actor1 , Actor2 , Actor3 , Actor4 , Actor5 , Actor6 ,Actor7 , Actor8 };
Escenas = [| 1 , 1 , 1 , 1 , 0 , 1 , 0 , 1 , 0 , 1 , 1 , 0 , 0 , 0 , 0 , 0 , 0 , 0 , 0 , 0 , 10 % Actor 1
| 1 , 1 , 1 , 0 , 0 , 0 , 1 , 1 , 0 , 1 , 0 , 0 , 1 , 1 , 1 , 0 , 1 , 0 , 0 , 1 , 4 % Actor 2
| 0 , 1 , 1 , 0 , 1 , 0 , 1 , 1 , 0 , 0 , 0 , 0 , 1 , 1 , 1 , 0 , 0 , 0 , 0 , 0 , 5 % Actor 3
| 0 , 0 , 0 , 0 , 0 , 0 , 0 , 0 , 0 , 1 , 1 , 1 , 1 , 0 , 0 , 0 , 0 , 0 , 0 , 0 , 5 % Actor 4
| 0 , 1 , 0 , 0 , 0 , 0 , 1 , 1 , 0 , 0 , 0 , 1 , 0 , 1 , 0 , 0 , 0 , 1 , 1 , 1 , 5 % Actor 5
| 0 , 0 , 0 , 0 , 0 , 0 , 0 , 0 , 0 , 0 , 0 , 0 , 0 , 1 , 1 , 1 , 1 , 1 , 0 , 0 , 40 % Actor 6
| 0 , 0 , 0 , 0 , 1 , 0 , 1 , 1 , 0 , 0 , 0 , 0 , 0 , 0 , 1 , 0 , 0 , 0 , 0 , 0 , 4 % Actor 7
| 0 , 0 , 0 , 0 , 0 , 1 , 1 , 1 , 1 , 0 , 0 , 0 , 0 , 0 , 0 , 0 , 0 , 0 , 0 , 0 , 20|] ;%Actor8
Duracion = [ 2 , 1 , 1 , 1 , 1 , 3 , 1 , 1 , 1 , 2 , 1 , 1 , 2 , 1 , 2 , 1 , 1 , 2 , 1 , 1 ] ;